% Data for perfect square placement problem:
% http://www.hakank.org/minizinc/perfect_square_placement.mzn
% Data is originally from CSPLib:
% http://www.cs.st-andrews.ac.uk/~ianm/CSPLib/prob/prob009/results

% problem 91 
n = 323;
size = 25;
a = [2,6,9,11,13,14,18,19,20,23,27,28,29,42,46,48,60,64,72,74,79,82,98,146,177];

